
Gurobi 9.5.1 (linux64) logging started Tue Jun  7 17:07:38 2022

Set parameter LogFile to value "../results/logs/log_ca-citeseer_3_2_2022_06_07_14_43.log"
Gurobi Optimizer version 9.5.1 build v9.5.1rc2 (linux64)
Thread count: 8 physical cores, 8 logical processors, using up to 8 threads
Optimize a model with 16987 rows, 454640 columns and 163125 nonzeros
Model fingerprint: 0x5315121b
Variable types: 0 continuous, 454640 integer (454640 binary)
Coefficient statistics:
  Matrix range     [1e+00, 3e+00]
  Objective range  [1e+00, 1e+00]
  Bounds range     [1e+00, 1e+00]
  RHS range        [1e+00, 2e+00]
Found heuristic solution: objective 152966.00000
Presolve removed 10167 rows and 444304 columns
Presolve time: 1.13s
Presolved: 6820 rows, 10336 columns, 30276 nonzeros
Variable types: 0 continuous, 10336 integer (9398 binary)
Found heuristic solution: objective 152968.00000

Root relaxation: objective 1.533529e+05, 3739 iterations, 0.02 seconds (0.02 work units)

    Nodes    |    Current Node    |     Objective Bounds      |     Work
 Expl Unexpl |  Obj  Depth IntInf | Incumbent    BestBd   Gap | It/Node Time

     0     0 153352.881    0  462 152968.000 153352.881  0.25%     -    1s
H    0     0                    152971.00000 153352.881  0.25%     -    1s
     0     0 153003.148    0   64 152971.000 153003.148  0.02%     -    1s
H    0     0                    152974.00000 153003.148  0.02%     -    1s
     0     0 152997.406    0   44 152974.000 152997.406  0.02%     -    1s
H    0     0                    152975.00000 152997.406  0.01%     -    1s
     0     0 152993.536    0   50 152975.000 152993.536  0.01%     -    1s
     0     0 152993.536    0   47 152975.000 152993.536  0.01%     -    1s
     0     0 152984.000    0   16 152975.000 152984.000  0.01%     -    1s
H    0     0                    152976.00000 152984.000  0.01%     -    1s
     0     0 152984.000    0   21 152976.000 152984.000  0.01%     -    1s
     0     0 152984.000    0  323 152976.000 152984.000  0.01%     -    2s
     0     0 152984.000    0   50 152976.000 152984.000  0.01%     -    2s
     0     0 152984.000    0   53 152976.000 152984.000  0.01%     -    2s
     0     0 152984.000    0   42 152976.000 152984.000  0.01%     -    2s
     0     0 152984.000    0   41 152976.000 152984.000  0.01%     -    2s
     0     0 152984.000    0   32 152976.000 152984.000  0.01%     -    2s
     0     0 152984.000    0   32 152976.000 152984.000  0.01%     -    2s
     0     0 152984.000    0   24 152976.000 152984.000  0.01%     -    2s
H    0     0                    152978.00000 152984.000  0.00%     -    2s
     0     0 152983.655    0   31 152978.000 152983.655  0.00%     -    2s
     0     0 152983.655    0  132 152978.000 152983.655  0.00%     -    2s
     0     0 152983.655    0   38 152978.000 152983.655  0.00%     -    2s
H    0     0                    152979.00000 152983.655  0.00%     -    2s
     0     0 152980.750    0   19 152979.000 152980.750  0.00%     -    2s
*    0     0               0    152980.00000 152980.000  0.00%     -    2s

Cutting planes:
  Gomory: 55
  Cover: 13
  Implied bound: 1
  MIR: 55
  GUB cover: 103
  Zero half: 7
  RLT: 5

Explored 1 nodes (6544 simplex iterations) in 2.73 seconds (1.95 work units)
Thread count was 8 (of 8 available processors)

Solution count 10: 152980 152979 152978 ... 152966

Optimal solution found (tolerance 0.00e+00)
Best objective 1.529800000000e+05, best bound 1.529800000000e+05, gap 0.0000%
